8454 0 1 0 16 33 52 64 81 96 118 132 150
2145 1 1 30 48 61 84 99 115 127 147 163 180
7832 0 2 90 116 149 165
6951 1 2 180 195 228 255
2357 0 3 300 319 343 355
4569 1 3 900 911 936 955
8852 0 1 990 1006 1023 1042 1054 1071 1086 1108 1122 1140
2106 1 1 630 648 661 684 699 715 727 747 763 780
8074 0 2 1080 1106 1139 1155
9605 1 2 120 135 168 195
3604 0 3 240 259 283 295
8502 1 3 420 431 456 475
